100
32
2
12
4
22
2
10
31
2
6
32
8
17
1
20
14
27
26
25
1
8
25
12
25
26
9
1
4
6
16
1
12
1
9
19
6
20
21
3
1
3
1
2
2
18
3
1
2
4
17
1
3
3
3
1
5
5
25
6
1
5
1
2
2
1
4
4
1
16
1
2
6
6
17
1
2
4
2
1
2
19
1
3
4
7
1
1
1
20
2
2
2
1
1
1
2
1
1
1
2
1